1 of 1 MIP starts provided solutions.
MIP start 'm1' defined initial solution with objective 102165.0000.
Tried aggregator 1 time.
MIP Presolve eliminated 0 rows and 1 columns.
MIP Presolve modified 320100 coefficients.
Reduced MIP has 60100 rows, 30400 columns, and 9148603 nonzeros.
Reduced MIP has 30000 binaries, 0 generals, 0 SOSs, and 0 indicators.
Presolve time = 7.75 sec. (4543.07 ticks)
Probing time = 0.28 sec. (101.38 ticks)
Tried aggregator 1 time.
Reduced MIP has 60100 rows, 30400 columns, and 9148603 nonzeros.
Reduced MIP has 30000 binaries, 0 generals, 0 SOSs, and 0 indicators.
Presolve time = 4.87 sec. (2258.39 ticks)
Probing time = 0.26 sec. (101.35 ticks)
Clique table members: 100.
MIP emphasis: balance optimality and feasibility.
MIP search method: dynamic search.
Parallel mode: none, using 1 thread.
Root relaxation solution time = 2.21 sec. (993.47 ticks)

        Nodes                                         Cuts/
   Node  Left     Objective  IInf  Best Integer    Best Bound    ItCnt     Gap

*     0+    0                       102165.0000   2.30032e+07      510     --- 
      0     0   102190.9539    30   102165.0000   102190.9539      510    0.03%
      0     0   102172.9941     8   102165.0000      Cuts: 23      533    0.01%

Implied bound cuts applied:  8
Flow cuts applied:  9
Mixed integer rounding cuts applied:  5

Root node processing (before b&c):
  Real time             =   29.02 sec. (14229.28 ticks)
Sequential b&c:
  Real time             =    0.00 sec. (0.00 ticks)
                          ------------
Total (root+branch&cut) =   29.02 sec. (14229.28 ticks)
